Route #1: 1 1 6 21 29 23 26 11 19 1 
Route #2: 1 15 14 8 4 25 9 17 1 
Route #3: 1 3 5 18 22 30 28 2 1 
Route #4: 1 24 10 12 7 16 13 1 
Route #5: 1 20 27 1 

Cost 782.626
Time 0.1563


 * Another infos *

 Iterations: 31 Time: 0.1563 sec - 0.0026 min - 0.0000 horas
0.0000 h 0.0026 min
Problem dimension: 31
